(set-logic ALL)
(set-option :produce-models true)
(declare-fun sym645 () String)
(assert (<= (str.len sym645) 11))
(declare-fun sym20 () String)
(assert (<= (str.len sym20) 11))
(declare-fun sym205 () String)
(assert (<= (str.len sym205) 11))
(declare-fun sym601 () String)
(assert (<= (str.len sym601) 11))
(declare-fun sym449 () String)
(assert (<= (str.len sym449) 11))
(declare-fun sym328 () String)
(assert (<= (str.len sym328) 11))
(declare-fun sym429 () String)
(assert (<= (str.len sym429) 11))
(declare-fun sym409 () String)
(assert (<= (str.len sym409) 11))
(declare-fun sym483 () String)
(assert (<= (str.len sym483) 11))
(declare-fun sym363 () String)
(assert (<= (str.len sym363) 11))
(declare-fun sym264 () String)
(assert (<= (str.len sym264) 11))
(declare-fun sym463 () String)
(assert (<= (str.len sym463) 11))
(declare-fun sym289 () String)
(assert (<= (str.len sym289) 11))
(declare-fun sym521 () String)
(assert (<= (str.len sym521) 11))
(declare-fun sym565 () String)
(assert (<= (str.len sym565) 11))
(declare-fun sym225 () String)
(assert (<= (str.len sym225) 11))
(declare-fun sym621 () String)
(assert (<= (str.len sym621) 11))
(declare-fun sym545 () String)
(assert (<= (str.len sym545) 11))
(declare-fun sym160 () String)
(assert (<= (str.len sym160) 11))
(declare-fun sym383 () String)
(assert (<= (str.len sym383) 11))
(declare-fun sym185 () String)
(assert (<= (str.len sym185) 11))
(declare-fun sym581 () String)
(assert (<= (str.len sym581) 11))
(declare-fun sym535 () String)
(assert (<= (str.len sym535) 11))
(declare-fun sym239 () String)
(assert (<= (str.len sym239) 11))
(declare-fun sym338 () String)
(assert (<= (str.len sym338) 11))
(declare-fun sym635 () String)
(assert (<= (str.len sym635) 11))
(declare-fun sym439 () String)
(assert (<= (str.len sym439) 11))
(declare-fun sym419 () String)
(assert (<= (str.len sym419) 11))
(declare-fun sym175 () String)
(assert (<= (str.len sym175) 11))
(declare-fun sym373 () String)
(assert (<= (str.len sym373) 11))
(declare-fun sym473 () String)
(assert (<= (str.len sym473) 11))
(declare-fun sym353 () String)
(assert (<= (str.len sym353) 11))
(declare-fun sym254 () String)
(assert (<= (str.len sym254) 11))
(declare-fun sym497 () String)
(assert (<= (str.len sym497) 11))
(declare-fun sym299 () String)
(assert (<= (str.len sym299) 11))
(declare-fun sym113 () String)
(assert (<= (str.len sym113) 11))
(declare-fun sym135 () String)
(assert (<= (str.len sym135) 11))
(declare-fun sym279 () String)
(assert (<= (str.len sym279) 11))
(declare-fun sym313 () String)
(assert (<= (str.len sym313) 11))
(declare-fun sym555 () String)
(assert (<= (str.len sym555) 11))
(declare-fun sym511 () String)
(assert (<= (str.len sym511) 11))
(declare-fun sym215 () String)
(assert (<= (str.len sym215) 11))
(declare-fun sym611 () String)
(assert (<= (str.len sym611) 11))
(declare-fun sym655 () String)
(assert (<= (str.len sym655) 11))
(declare-fun sym150 () String)
(assert (<= (str.len sym150) 11))
(declare-fun sym591 () String)
(assert (<= (str.len sym591) 11))
(declare-fun sym195 () String)
(assert (<= (str.len sym195) 11))
(declare-fun sym393 () String)
(assert (<= (str.len sym393) 11))
(define-fun Alphabet () RegLan 
	(re.* (re.union (str.to_re "A") (str.to_re "B") (str.to_re "C") (str.to_re "D") (str.to_re "E") (str.to_re "F") (str.to_re "G") (str.to_re "H") (str.to_re "I") (str.to_re "J") (str.to_re "K") (str.to_re "L") (str.to_re "M") (str.to_re "N") (str.to_re "O") (str.to_re "P") (str.to_re "Q") (str.to_re "R") (str.to_re "S") (str.to_re "T") (str.to_re "U") (str.to_re "V") (str.to_re "W") (str.to_re "X") (str.to_re "Y") (str.to_re "Z") (str.to_re "a") (str.to_re "b") (str.to_re "c") (str.to_re "d") (str.to_re "e") (str.to_re "f") (str.to_re "g") (str.to_re "h") (str.to_re "i") (str.to_re "j") (str.to_re "k") (str.to_re "l") (str.to_re "m") (str.to_re "n") (str.to_re "o") (str.to_re "p") (str.to_re "q") (str.to_re "r") (str.to_re "s") (str.to_re "t") (str.to_re "u") (str.to_re "v") (str.to_re "w") (str.to_re "x") (str.to_re "y") (str.to_re "z") ))
)

(assert (str.in_re sym393 Alphabet))
(assert (str.in_re sym195 Alphabet))
(assert (str.in_re sym591 Alphabet))
(assert (str.in_re sym150 Alphabet))
(assert (str.in_re sym655 Alphabet))
(assert (str.in_re sym611 Alphabet))
(assert (str.in_re sym215 Alphabet))
(assert (str.in_re sym511 Alphabet))
(assert (str.in_re sym555 Alphabet))
(assert (str.in_re sym313 Alphabet))
(assert (str.in_re sym279 Alphabet))
(assert (str.in_re sym135 Alphabet))
(assert (str.in_re sym113 Alphabet))
(assert (str.in_re sym299 Alphabet))
(assert (str.in_re sym497 Alphabet))
(assert (str.in_re sym254 Alphabet))
(assert (str.in_re sym353 Alphabet))
(assert (str.in_re sym473 Alphabet))
(assert (str.in_re sym373 Alphabet))
(assert (str.in_re sym175 Alphabet))
(assert (str.in_re sym419 Alphabet))
(assert (str.in_re sym439 Alphabet))
(assert (str.in_re sym635 Alphabet))
(assert (str.in_re sym338 Alphabet))
(assert (str.in_re sym239 Alphabet))
(assert (str.in_re sym535 Alphabet))
(assert (str.in_re sym581 Alphabet))
(assert (str.in_re sym185 Alphabet))
(assert (str.in_re sym383 Alphabet))
(assert (str.in_re sym160 Alphabet))
(assert (str.in_re sym545 Alphabet))
(assert (str.in_re sym621 Alphabet))
(assert (str.in_re sym225 Alphabet))
(assert (str.in_re sym565 Alphabet))
(assert (str.in_re sym521 Alphabet))
(assert (str.in_re sym289 Alphabet))
(assert (str.in_re sym463 Alphabet))
(assert (str.in_re sym264 Alphabet))
(assert (str.in_re sym363 Alphabet))
(assert (str.in_re sym483 Alphabet))
(assert (str.in_re sym409 Alphabet))
(assert (str.in_re sym429 Alphabet))
(assert (str.in_re sym328 Alphabet))
(assert (str.in_re sym449 Alphabet))
(assert (str.in_re sym601 Alphabet))
(assert (str.in_re sym205 Alphabet))
(assert (str.in_re sym20 Alphabet))
(assert (str.in_re sym645 Alphabet))
(assert (= (str.to_lower sym521 )(str.to_lower "description" )))
(assert (not (= (str.to_lower sym645 )(str.to_lower "description" ))))
(assert (= (str.to_lower sym239 )(str.to_lower "name" )))
(assert (not (= (str.to_lower sym591 )(str.to_lower "description" ))))
(assert (not (= (str.to_lower sym535 )(str.to_lower "name" ))))
(assert (= (str.to_lower sym497 )(str.to_lower "name" )))
(assert (not (= (str.to_lower sym419 )(str.to_lower "description" ))))
(assert (= (str.to_lower sym225 )(str.to_lower "table" )))
(assert (not (= (str.to_lower sym353 )(str.to_lower "name" ))))
(assert (not (= (str.to_lower sym195 )(str.to_lower "table" ))))
(assert (not (= (str.to_lower sym383 )(str.to_lower "length" ))))
(assert (= (str.to_lower sym160 )(str.to_lower "description" )))
(assert (= (str.to_lower sym393 )(str.to_lower "option" )))
(assert (= (str.to_lower sym20 )"html" ))
(assert (not (= (str.to_lower sym150 )(str.to_lower "name" ))))
(assert (not (= (str.to_lower sym215 )(str.to_lower "description" ))))
(assert (= (str.to_lower sym449 )(str.to_lower "option" )))
(assert (= (str.to_lower sym338 )(str.to_lower "description" )))
(assert (= (str.to_lower sym113 )(str.to_lower "database" )))
(assert (not (= (str.to_lower sym20 )"sql" )))
(assert (= (str.to_lower sym621 )(str.to_lower "option" )))
(assert (not (= (str.to_lower sym185 )(str.to_lower "description" ))))
(assert (not (= (str.to_lower sym439 )(str.to_lower "length" ))))
(assert (= (str.to_lower sym313 )(str.to_lower "name" )))
(assert (not (= (str.to_lower sym254 )(str.to_lower "name" ))))
(assert (not (= (str.to_lower sym429 )(str.to_lower "type" ))))
(assert (not (= (str.to_lower sym635 )(str.to_lower "name" ))))
(assert (= (str.to_lower sym483 )(str.to_lower "field" )))
(assert (not (= (str.to_lower sym175 )(str.to_lower "name" ))))
(assert (not (= (str.to_lower sym205 )(str.to_lower "name" ))))
(assert (not (= (str.to_lower sym363 )(str.to_lower "description" ))))
(assert (not (= (str.to_lower sym601 )(str.to_lower "type" ))))
(assert (not (= (str.to_lower sym373 )(str.to_lower "type" ))))
(assert (not (= (str.to_lower sym555 )(str.to_lower "type" ))))
(assert (= (str.to_lower sym299 )(str.to_lower "field" )))
(assert (= (str.to_lower sym565 )(str.to_lower "length" )))
(assert (not (= (str.to_lower sym328 )(str.to_lower "name" ))))
(assert (not (= (str.to_lower sym511 )(str.to_lower "name" ))))
(assert (= (str.to_lower sym264 )(str.to_lower "description" )))
(assert (not (= (str.to_lower sym545 )(str.to_lower "description" ))))
(assert (not (= (str.to_lower sym279 )(str.to_lower "name" ))))
(assert (not (= (str.to_lower sym409 )(str.to_lower "name" ))))
(assert (not (= (str.to_lower sym463 )(str.to_lower "name" ))))
(assert (not (= (str.to_lower sym289 )(str.to_lower "description" ))))
(assert (not (= (str.to_lower sym611 )(str.to_lower "length" ))))
(assert (not (= (str.to_lower sym473 )(str.to_lower "description" ))))
(assert (not (= (str.to_lower sym581 )(str.to_lower "name" ))))
(assert (= (str.to_lower sym135 )(str.to_lower "name" )))
(assert (not (= (str.to_lower sym655 )(str.to_lower "field" ))))
(check-sat)
(get-model)
(exit)
